s td 16 85 100
b 1 1 2 3 4 6 7 8 9 10 11 12 13 14 15 16 17 18 19 20 22 23 24 26 27 28 30 32 33 34 36 37 39 40 41 43 44 45 46 47 48 49 50 51 52 53 56 57 58 59 60 61 62 63 65 66 67 68 69 70 71 72 73 74 75 76 77 78 79 80 82 83 84 86 87 88 89 90 91 93 94 95 96 98 99 100
b 2 2 3 4 6 8 9 11 12 13 14 16 18 19 20 22 23 24 25 28 30 32 34 36 37 41 44 45 46 47 48 50 51 52 53 56 57 59 60 61 62 63 65 67 69 70 71 72 74 77 79 82 83 86 87 88 89 90 91 93 94 95 96 98 99
b 3 2 4 5 6 8 12 13 14 16 19 24 25 28 30 32 36 37 41 44 45 46 47 48 50 51 52 56 63 65 67 69 70 71 72 79 82 83 86 87 88 89 90 91 93 94 95 96 98
b 4 1 2 3 4 6 7 10 11 14 15 17 19 20 22 23 24 26 32 33 34 39 40 43 45 47 48 49 50 51 52 54 56 57 58 59 60 61 65 66 67 68 69 70 71 73 75 79 80 86 88 89 90 91 93 94 95 96 98 99 100
b 5 1 2 3 4 14 17 19 20 21 22 24 26 32 39 40 43 45 48 49 50 51 52 54 56 59 60 61 66 67 68 69 73 75 79 89 90 91 93 95 96 98 99
b 6 1 2 3 4 6 7 8 9 10 11 12 13 14 15 16 17 18 19 20 22 23 24 26 27 28 30 32 33 34 36 37 39 40 41 43 44 45 46 47 48 49 50 51 52 53 56 57 58 59 60 61 62 63 65 66 67 68 69 70 71 72 73 74 75 76 77 78 79 80 82 83 84 85 86 87 89 90 91 93 94 95 96 98 99 100
b 7 1 2 3 4 6 7 9 10 11 12 13 14 15 17 18 19 20 22 26 27 28 29 30 33 34 37 39 40 41 43 44 45 46 47 48 50 53 56 57 58 59 60 61 62 65 66 68 69 70 72 73 74 75 76 77 79 80 82 83 85 86 87 89 90 91 93 94 95 96 98 99 100
b 8 1 4 6 10 11 13 14 17 18 20 26 27 29 37 40 43 45 46 47 48 50 53 56 57 58 59 60 61 62 65 66 68 69 70 74 76 79 80 81 83 86 94 95 96 98 99 100
b 9 1 2 3 4 6 7 9 10 11 12 13 14 15 16 17 18 19 20 22 23 24 26 27 28 30 32 33 34 36 37 39 42 43 44 45 46 47 48 50 51 52 53 56 57 58 59 60 61 62 63 65 66 67 68 69 70 71 73 74 75 77 78 79 80 82 84 85 86 87 89 91 93 94 95 96 98 99 100
b 10 1 3 4 6 7 9 10 11 12 13 14 16 17 22 23 24 26 27 28 30 32 33 34 35 36 37 42 43 44 45 46 47 48 50 51 52 53 57 58 61 62 63 65 66 67 68 69 70 71 73 75 77 78 79 80 82 84 85 86 87 89 91 93 94 95 96 99 100
b 11 1 3 4 6 7 10 11 12 13 14 16 22 24 28 30 32 34 35 36 37 42 44 45 48 50 51 52 57 58 62 63 65 66 67 68 70 71 73 75 77 78 79 80 82 84 89 91 92 93 94 99 100
b 12 1 2 3 4 6 7 8 9 10 11 12 13 14 15 16 17 18 19 20 22 23 24 26 27 28 30 32 33 34 36 37 39 40 41 43 44 45 46 47 48 49 50 51 52 53 56 57 58 59 61 62 63 64 65 66 67 68 69 70 71 72 73 74 75 76 77 78 79 80 82 83 84 86 87 88 89 90 91 93 94 95 96 98 99 100
b 13 1 2 3 4 6 7 8 9 10 11 12 13 14 15 16 18 19 20 22 23 24 26 28 30 31 32 33 34 36 37 39 40 41 43 44 45 46 47 48 49 51 52 53 56 57 58 59 61 62 63 64 65 66 67 68 69 70 71 72 73 74 75 76 77 78 79 80 82 83 84 86 87 88 89 90 91 93 94 95 96 98 99 100
b 14 1 2 3 4 7 8 10 11 12 13 14 15 16 18 20 23 24 26 28 31 32 33 34 36 37 38 39 40 43 44 45 46 49 51 53 57 58 61 62 63 64 66 67 68 69 70 71 72 73 74 76 77 78 79 80 82 83 84 86 88 89 90 91 93 94 95 96 98 99
b 15 1 2 4 7 10 13 15 16 20 24 26 31 33 34 38 39 40 43 44 45 49 53 55 58 61 62 63 66 67 73 74 76 79 83 84 86 89 90 91 94 96
b 16 1 2 3 6 7 8 9 11 12 13 16 22 24 30 31 32 33 40 41 48 51 52 53 56 57 58 61 62 63 67 71 72 74 75 77 80 82 83 84 86 87 88 94 96 97 98 100
1 2
1 4
1 6
1 12
2 3
4 5
6 7
6 9
7 8
9 10
10 11
12 13
13 14
13 16
14 15
